Generations:
0: ((10, 43, 49, 37, 17, 22, 19, 41, 2, 6, 42, 35, 30, 33, 9, 25, 45, 29, 32, 26, 27, 13, 0, 34, 24, 4, 5, 7, 3, 1, 40, 46, 21, 36, 8, 15, 28, 23, 38, 47, 14, 20, 48, 44, 39, 31, 12, 18, 16, 11), 1232)
1: ((41, 31, 1, 40, 32, 28, 36, 35, 10, 18, 27, 22, 25, 29, 19, 33, 45, 17, 34, 42, 14, 44, 0, 43, 11, 24, 30, 26, 49, 9, 15, 7, 16, 20, 38, 23, 8, 48, 46, 47, 39, 6, 13, 3, 37, 12, 2, 4, 21, 5), 1220)
2: ((16, 32, 42, 3, 48, 18, 41, 29, 11, 47, 21, 38, 31, 36, 9, 4, 39, 40, 33, 30, 25, 6, 19, 1, 28, 15, 17, 13, 24, 10, 2, 43, 45, 5, 7, 49, 34, 44, 35, 46, 22, 26, 27, 12, 20, 14, 23, 37, 8, 0), 1212)
3: ((16, 32, 42, 3, 48, 18, 41, 29, 11, 47, 21, 38, 31, 36, 9, 4, 39, 40, 33, 30, 25, 6, 19, 1, 28, 15, 17, 13, 24, 10, 2, 43, 45, 5, 7, 49, 34, 44, 35, 46, 22, 26, 27, 12, 20, 14, 23, 37, 8, 0), 1212)
4: ((1, 8, 32, 29, 40, 6, 20, 41, 2, 10, 25, 19, 43, 5, 26, 24, 18, 48, 37, 22, 17, 49, 0, 16, 38, 15, 33, 4, 45, 12, 13, 36, 46, 47, 7, 3, 14, 35, 28, 30, 27, 31, 23, 39, 21, 9, 42, 44, 11, 34), 1199)
5: ((21, 8, 32, 29, 40, 6, 20, 41, 2, 10, 25, 19, 43, 5, 26, 24, 18, 48, 37, 22, 17, 49, 0, 16, 38, 15, 33, 4, 45, 12, 13, 36, 46, 47, 7, 3, 14, 35, 28, 30, 27, 31, 9, 34, 23, 39, 11, 44, 42, 1), 1191)
6: ((21, 8, 32, 29, 40, 6, 20, 41, 2, 10, 25, 19, 43, 5, 26, 24, 18, 48, 37, 22, 17, 49, 0, 16, 38, 15, 33, 4, 45, 12, 13, 36, 46, 47, 7, 3, 14, 35, 28, 30, 27, 31, 9, 34, 23, 39, 11, 44, 42, 1), 1191)
7: ((35, 8, 32, 29, 40, 6, 20, 41, 2, 10, 25, 19, 43, 5, 26, 27, 22, 33, 45, 17, 30, 34, 42, 14, 0, 44, 23, 13, 21, 48, 4, 39, 47, 38, 46, 16, 3, 12, 7, 37, 11, 24, 31, 18, 49, 9, 15, 1, 28, 36), 1187)
8: ((37, 41, 31, 32, 35, 10, 18, 22, 25, 17, 49, 16, 33, 45, 12, 6, 29, 43, 30, 26, 27, 13, 0, 34, 24, 4, 7, 3, 1, 40, 46, 21, 36, 8, 15, 28, 23, 38, 47, 2, 20, 39, 11, 44, 19, 42, 9, 5, 14, 48), 1170)
9: ((37, 41, 31, 32, 35, 10, 18, 22, 25, 17, 49, 16, 33, 45, 12, 6, 29, 43, 30, 26, 27, 13, 0, 34, 24, 4, 7, 3, 1, 40, 46, 21, 36, 8, 15, 28, 23, 38, 47, 2, 20, 39, 11, 44, 19, 42, 9, 5, 14, 48), 1170)
10: ((37, 41, 31, 32, 35, 10, 18, 22, 25, 17, 49, 33, 45, 12, 6, 29, 43, 30, 26, 27, 13, 0, 34, 24, 4, 7, 3, 1, 40, 46, 21, 36, 8, 15, 28, 23, 38, 47, 2, 20, 39, 16, 11, 44, 19, 42, 9, 5, 14, 48), 1160)
11: ((37, 41, 31, 32, 35, 10, 18, 22, 25, 17, 49, 33, 45, 12, 6, 29, 43, 30, 26, 27, 13, 0, 34, 24, 4, 7, 3, 1, 40, 46, 21, 36, 8, 15, 28, 23, 38, 47, 2, 20, 39, 16, 11, 44, 19, 42, 9, 5, 14, 48), 1160)
12: ((37, 41, 31, 32, 35, 10, 18, 22, 25, 17, 49, 33, 45, 12, 6, 29, 43, 30, 26, 27, 13, 0, 34, 24, 4, 7, 3, 1, 40, 46, 21, 36, 8, 15, 28, 23, 38, 47, 2, 20, 39, 16, 11, 44, 19, 42, 9, 5, 14, 48), 1160)
13: ((37, 41, 31, 32, 35, 10, 18, 22, 25, 17, 49, 33, 45, 12, 6, 29, 43, 30, 26, 27, 13, 0, 34, 24, 4, 7, 3, 1, 40, 46, 21, 36, 8, 15, 28, 23, 38, 47, 2, 20, 39, 16, 11, 44, 19, 42, 9, 5, 14, 48), 1160)
14: ((37, 41, 31, 32, 35, 10, 18, 22, 25, 17, 49, 33, 45, 12, 6, 29, 43, 30, 26, 27, 13, 0, 34, 24, 4, 7, 3, 1, 40, 46, 21, 36, 8, 15, 28, 23, 38, 47, 2, 20, 39, 16, 11, 44, 19, 42, 9, 5, 14, 48), 1160)
15: ((48, 37, 41, 31, 40, 32, 35, 10, 18, 27, 22, 25, 17, 49, 0, 16, 15, 33, 4, 45, 12, 26, 6, 29, 43, 30, 7, 3, 1, 46, 21, 36, 8, 28, 23, 38, 47, 20, 2, 39, 11, 44, 14, 42, 19, 5, 24, 13, 9, 34), 1155)
16: ((48, 37, 41, 31, 40, 32, 35, 10, 18, 27, 22, 25, 17, 49, 0, 16, 15, 33, 4, 45, 12, 26, 6, 29, 43, 30, 7, 3, 1, 46, 21, 36, 8, 28, 23, 38, 47, 20, 2, 39, 11, 44, 14, 42, 19, 5, 24, 13, 9, 34), 1155)
17: ((48, 37, 41, 31, 40, 32, 35, 10, 18, 27, 22, 25, 17, 49, 0, 16, 15, 33, 4, 45, 12, 26, 6, 29, 43, 30, 7, 3, 1, 46, 21, 36, 8, 28, 23, 38, 47, 20, 2, 39, 11, 44, 14, 42, 19, 5, 24, 13, 9, 34), 1155)
18: ((48, 37, 41, 31, 40, 32, 35, 10, 18, 27, 22, 25, 17, 49, 0, 16, 15, 33, 4, 45, 12, 26, 6, 29, 43, 30, 7, 3, 1, 46, 21, 36, 8, 28, 23, 38, 47, 20, 2, 39, 11, 44, 14, 42, 19, 5, 24, 13, 9, 34), 1155)
19: ((48, 37, 41, 31, 40, 32, 35, 10, 18, 27, 22, 25, 17, 49, 0, 16, 15, 33, 4, 45, 12, 26, 6, 29, 43, 30, 7, 3, 1, 46, 21, 36, 8, 28, 23, 38, 47, 20, 2, 39, 11, 44, 14, 42, 19, 5, 24, 13, 9, 34), 1155)
20: ((48, 37, 41, 31, 40, 32, 35, 10, 18, 27, 22, 25, 17, 49, 0, 16, 15, 33, 4, 45, 12, 26, 6, 29, 43, 30, 7, 3, 1, 46, 21, 36, 8, 28, 23, 38, 47, 20, 2, 39, 11, 44, 14, 42, 19, 5, 24, 13, 9, 34), 1155)
21: ((48, 37, 41, 31, 40, 32, 35, 10, 18, 27, 22, 25, 17, 49, 0, 16, 15, 33, 4, 45, 12, 26, 6, 29, 43, 30, 7, 3, 1, 46, 21, 36, 8, 28, 23, 38, 47, 20, 2, 39, 11, 44, 14, 42, 19, 5, 24, 13, 9, 34), 1155)
22: ((48, 37, 41, 31, 40, 32, 35, 10, 18, 27, 22, 25, 17, 49, 0, 16, 15, 33, 4, 45, 12, 26, 6, 29, 43, 30, 7, 3, 1, 46, 21, 36, 8, 28, 23, 38, 47, 20, 2, 39, 11, 44, 14, 42, 19, 5, 24, 13, 9, 34), 1155)
23: ((48, 37, 41, 31, 40, 32, 35, 10, 18, 27, 22, 25, 17, 49, 0, 16, 15, 33, 4, 45, 12, 26, 6, 29, 43, 30, 7, 3, 1, 46, 21, 36, 8, 28, 23, 38, 47, 20, 2, 39, 11, 44, 14, 42, 19, 5, 24, 13, 9, 34), 1155)
24: ((48, 37, 41, 31, 40, 32, 35, 10, 18, 27, 22, 25, 17, 49, 0, 16, 15, 33, 4, 45, 12, 26, 6, 29, 43, 30, 7, 3, 1, 46, 21, 36, 8, 28, 23, 38, 47, 20, 2, 39, 11, 44, 14, 42, 19, 5, 24, 13, 9, 34), 1155)
25: ((48, 37, 41, 31, 40, 32, 35, 10, 18, 27, 22, 25, 17, 49, 0, 16, 15, 33, 4, 45, 12, 26, 6, 29, 43, 30, 7, 3, 1, 46, 21, 36, 8, 28, 23, 38, 47, 20, 2, 39, 11, 44, 14, 42, 19, 5, 24, 13, 9, 34), 1155)
26: ((48, 37, 41, 31, 40, 32, 35, 10, 18, 27, 22, 25, 17, 49, 0, 16, 15, 33, 4, 45, 12, 26, 6, 29, 43, 30, 7, 3, 1, 46, 21, 36, 8, 28, 23, 38, 47, 20, 2, 39, 11, 44, 14, 42, 19, 5, 24, 13, 9, 34), 1155)
27: ((43, 41, 32, 10, 22, 19, 45, 17, 48, 44, 11, 5, 30, 2, 27, 13, 0, 34, 24, 4, 7, 3, 1, 40, 46, 21, 36, 8, 15, 28, 23, 38, 47, 37, 31, 42, 9, 14, 20, 39, 35, 18, 25, 49, 16, 33, 12, 26, 6, 29), 1145)
28: ((35, 30, 22, 9, 45, 43, 17, 41, 29, 32, 5, 26, 27, 13, 0, 34, 4, 7, 3, 1, 40, 48, 16, 10, 25, 44, 12, 21, 36, 8, 15, 28, 23, 38, 47, 14, 31, 39, 20, 46, 42, 18, 11, 49, 37, 24, 33, 19, 2, 6), 1126)
29: ((35, 30, 22, 9, 45, 43, 17, 41, 29, 32, 5, 26, 27, 13, 0, 34, 4, 7, 3, 1, 40, 48, 16, 10, 25, 44, 12, 21, 36, 8, 15, 28, 23, 38, 47, 14, 31, 39, 20, 46, 42, 18, 11, 49, 37, 24, 33, 19, 2, 6), 1126)
30: ((35, 30, 22, 9, 45, 43, 17, 41, 29, 32, 5, 26, 27, 13, 0, 34, 4, 7, 3, 1, 40, 48, 16, 10, 25, 44, 12, 21, 36, 8, 15, 28, 23, 38, 47, 14, 31, 39, 20, 46, 42, 18, 11, 49, 37, 24, 33, 19, 2, 6), 1126)
31: ((35, 30, 22, 9, 45, 43, 17, 41, 29, 32, 5, 26, 27, 13, 0, 34, 4, 7, 3, 1, 40, 48, 16, 10, 25, 44, 12, 21, 36, 8, 15, 28, 23, 38, 47, 14, 31, 39, 20, 46, 42, 18, 11, 49, 37, 24, 33, 19, 2, 6), 1126)
32: ((35, 30, 22, 9, 45, 43, 17, 41, 29, 32, 5, 26, 27, 13, 0, 34, 4, 7, 3, 1, 40, 48, 16, 10, 25, 44, 12, 21, 36, 8, 15, 28, 23, 38, 47, 14, 31, 39, 20, 46, 42, 18, 11, 49, 37, 24, 33, 19, 2, 6), 1126)
33: ((35, 30, 22, 9, 45, 43, 17, 41, 29, 32, 5, 26, 27, 13, 0, 34, 4, 7, 3, 1, 40, 48, 16, 10, 25, 44, 12, 21, 36, 8, 15, 28, 23, 38, 47, 14, 31, 39, 20, 46, 42, 18, 11, 49, 37, 24, 33, 19, 2, 6), 1126)
34: ((35, 30, 22, 9, 45, 43, 17, 41, 29, 32, 5, 26, 27, 13, 0, 34, 4, 7, 3, 1, 40, 48, 16, 10, 25, 44, 12, 21, 36, 8, 15, 28, 23, 38, 47, 14, 31, 39, 20, 46, 42, 18, 11, 49, 37, 24, 33, 19, 2, 6), 1126)
35: ((35, 30, 22, 9, 45, 43, 17, 41, 29, 32, 5, 26, 27, 13, 0, 34, 4, 7, 3, 1, 40, 48, 16, 10, 25, 44, 12, 21, 36, 8, 15, 28, 23, 38, 47, 14, 31, 39, 20, 46, 42, 18, 11, 49, 37, 24, 33, 19, 2, 6), 1126)
36: ((35, 30, 22, 9, 45, 43, 17, 41, 29, 32, 5, 26, 27, 13, 0, 34, 4, 7, 3, 1, 40, 48, 16, 10, 25, 44, 12, 21, 36, 8, 15, 28, 23, 38, 47, 14, 31, 39, 20, 46, 42, 18, 11, 49, 37, 24, 33, 19, 2, 6), 1126)
37: ((35, 30, 22, 9, 45, 43, 17, 41, 29, 32, 5, 26, 27, 13, 0, 34, 4, 7, 3, 1, 40, 48, 16, 10, 25, 44, 12, 21, 36, 8, 15, 28, 23, 38, 47, 14, 31, 39, 20, 46, 42, 18, 11, 49, 37, 24, 33, 19, 2, 6), 1126)
38: ((35, 30, 22, 9, 45, 43, 17, 41, 29, 32, 5, 26, 27, 13, 0, 34, 4, 7, 3, 1, 40, 48, 16, 10, 25, 44, 12, 21, 36, 8, 15, 28, 23, 38, 47, 14, 31, 39, 20, 46, 42, 18, 11, 49, 37, 24, 33, 19, 2, 6), 1126)
39: ((35, 30, 22, 9, 45, 43, 17, 41, 29, 32, 5, 26, 27, 13, 0, 34, 4, 7, 3, 1, 40, 48, 16, 10, 25, 44, 12, 21, 36, 8, 15, 28, 23, 38, 47, 14, 31, 39, 20, 46, 42, 18, 11, 49, 37, 24, 33, 19, 2, 6), 1126)
40: ((35, 30, 22, 9, 45, 43, 17, 41, 29, 32, 5, 26, 27, 13, 0, 34, 4, 7, 3, 1, 40, 48, 16, 10, 25, 44, 12, 21, 36, 8, 15, 28, 23, 38, 47, 14, 31, 39, 20, 46, 42, 18, 11, 49, 37, 24, 33, 19, 2, 6), 1126)
41: ((35, 30, 22, 9, 45, 43, 17, 41, 29, 32, 5, 26, 27, 13, 0, 34, 4, 7, 3, 1, 40, 48, 16, 10, 25, 44, 12, 21, 36, 8, 15, 28, 23, 38, 47, 14, 31, 39, 20, 46, 42, 18, 11, 49, 37, 24, 33, 19, 2, 6), 1126)
42: ((35, 30, 22, 9, 45, 43, 17, 41, 29, 32, 5, 26, 27, 13, 0, 34, 4, 7, 3, 1, 40, 48, 16, 10, 25, 44, 12, 21, 36, 8, 15, 28, 23, 38, 47, 14, 31, 39, 20, 46, 42, 18, 11, 49, 37, 24, 33, 19, 2, 6), 1126)
43: ((35, 30, 22, 9, 45, 43, 17, 41, 29, 32, 5, 26, 27, 13, 0, 34, 4, 7, 3, 1, 40, 48, 16, 10, 25, 44, 12, 21, 36, 8, 15, 28, 23, 38, 47, 14, 31, 39, 20, 46, 42, 18, 11, 49, 37, 24, 33, 19, 2, 6), 1126)
44: ((24, 43, 17, 41, 32, 5, 26, 27, 13, 0, 34, 4, 3, 40, 48, 16, 10, 25, 44, 15, 35, 18, 49, 7, 1, 46, 21, 36, 8, 28, 23, 38, 47, 37, 31, 42, 9, 14, 20, 39, 33, 12, 6, 29, 22, 19, 45, 11, 30, 2), 1118)
45: ((24, 43, 17, 41, 32, 5, 26, 27, 13, 0, 34, 4, 3, 40, 48, 16, 10, 25, 44, 15, 35, 18, 49, 7, 1, 46, 21, 36, 8, 28, 23, 38, 47, 37, 31, 42, 9, 14, 20, 39, 33, 12, 6, 29, 22, 19, 45, 11, 30, 2), 1118)
46: ((24, 43, 17, 41, 32, 5, 26, 27, 13, 0, 34, 4, 3, 40, 48, 16, 10, 25, 44, 15, 35, 18, 49, 7, 1, 46, 21, 36, 8, 28, 23, 38, 47, 37, 31, 42, 9, 14, 20, 39, 33, 12, 6, 29, 22, 19, 45, 11, 30, 2), 1118)
47: ((24, 43, 17, 41, 32, 5, 26, 27, 13, 0, 34, 4, 3, 40, 48, 16, 10, 25, 44, 15, 35, 18, 49, 7, 1, 46, 21, 36, 8, 28, 23, 38, 47, 37, 31, 42, 9, 14, 20, 39, 33, 12, 6, 29, 22, 19, 45, 11, 30, 2), 1118)
48: ((24, 43, 17, 41, 32, 5, 26, 27, 13, 0, 34, 4, 3, 40, 48, 16, 10, 25, 44, 15, 35, 18, 49, 7, 1, 46, 21, 36, 8, 28, 23, 38, 47, 37, 31, 42, 9, 14, 20, 39, 33, 12, 6, 29, 22, 19, 45, 11, 30, 2), 1118)
49: ((24, 43, 17, 41, 32, 5, 26, 27, 13, 0, 34, 4, 3, 40, 48, 16, 10, 25, 44, 15, 35, 18, 49, 7, 1, 46, 21, 36, 8, 28, 23, 38, 47, 37, 31, 42, 9, 14, 20, 39, 33, 12, 6, 29, 22, 19, 45, 11, 30, 2), 1118)
50: ((24, 43, 17, 41, 32, 5, 26, 27, 13, 0, 34, 4, 3, 40, 48, 16, 10, 25, 44, 15, 35, 18, 49, 7, 1, 46, 21, 36, 8, 28, 23, 38, 47, 37, 31, 42, 9, 14, 20, 39, 33, 12, 6, 29, 22, 19, 45, 11, 30, 2), 1118)
51: ((24, 43, 17, 41, 32, 5, 26, 27, 13, 0, 34, 4, 3, 40, 48, 16, 10, 25, 44, 15, 35, 18, 49, 7, 1, 46, 21, 36, 8, 28, 23, 38, 47, 37, 31, 42, 9, 14, 20, 39, 33, 12, 6, 29, 22, 19, 45, 11, 30, 2), 1118)
52: ((24, 43, 17, 41, 32, 5, 26, 27, 13, 0, 34, 4, 3, 40, 48, 16, 10, 25, 44, 15, 35, 18, 49, 7, 1, 46, 21, 36, 8, 28, 23, 38, 47, 37, 31, 42, 9, 14, 20, 39, 33, 12, 6, 29, 22, 19, 45, 11, 30, 2), 1118)
53: ((24, 43, 17, 41, 32, 5, 26, 27, 13, 0, 34, 4, 3, 40, 48, 16, 10, 25, 44, 15, 35, 18, 49, 7, 1, 46, 21, 36, 8, 28, 23, 38, 47, 37, 31, 42, 9, 14, 20, 39, 33, 12, 6, 29, 22, 19, 45, 11, 30, 2), 1118)
54: ((24, 43, 17, 41, 32, 5, 26, 27, 13, 0, 34, 4, 3, 40, 48, 16, 10, 25, 44, 15, 35, 18, 49, 7, 1, 46, 21, 36, 8, 28, 23, 38, 47, 37, 31, 42, 9, 14, 20, 39, 33, 12, 6, 29, 22, 19, 45, 11, 30, 2), 1118)
55: ((24, 43, 17, 41, 32, 5, 26, 27, 13, 0, 34, 4, 3, 40, 48, 16, 10, 25, 44, 15, 35, 18, 49, 7, 1, 46, 21, 36, 8, 28, 23, 38, 47, 37, 31, 42, 9, 14, 20, 39, 33, 12, 6, 29, 22, 19, 45, 11, 30, 2), 1118)
56: ((24, 43, 17, 41, 32, 5, 26, 27, 13, 0, 34, 4, 3, 40, 48, 16, 10, 25, 44, 15, 35, 18, 49, 7, 1, 46, 21, 36, 8, 28, 23, 38, 47, 37, 31, 42, 9, 14, 20, 39, 33, 12, 6, 29, 22, 19, 45, 11, 30, 2), 1118)
57: ((24, 43, 17, 41, 32, 5, 26, 27, 13, 0, 34, 4, 3, 40, 48, 16, 10, 25, 44, 15, 35, 18, 49, 7, 1, 46, 21, 36, 8, 28, 23, 38, 47, 37, 31, 42, 9, 14, 20, 39, 33, 12, 6, 29, 22, 19, 45, 11, 30, 2), 1118)
58: ((24, 43, 17, 41, 32, 5, 26, 27, 13, 0, 34, 4, 3, 40, 48, 16, 10, 25, 44, 15, 35, 18, 49, 7, 1, 46, 21, 36, 8, 28, 23, 38, 47, 37, 31, 42, 9, 14, 20, 39, 33, 12, 6, 29, 22, 19, 45, 11, 30, 2), 1118)
59: ((24, 43, 17, 41, 32, 5, 26, 27, 13, 0, 34, 4, 3, 40, 48, 16, 10, 25, 44, 15, 35, 18, 49, 7, 1, 46, 21, 36, 8, 28, 23, 38, 47, 37, 31, 42, 9, 14, 20, 39, 33, 12, 6, 29, 22, 19, 45, 11, 30, 2), 1118)
60: ((24, 43, 17, 41, 32, 5, 26, 27, 13, 0, 34, 4, 3, 40, 48, 16, 10, 25, 44, 15, 35, 18, 49, 7, 1, 46, 21, 36, 8, 28, 23, 38, 47, 37, 31, 42, 9, 14, 20, 39, 33, 12, 6, 29, 22, 19, 45, 11, 30, 2), 1118)
61: ((24, 43, 17, 41, 32, 5, 26, 27, 13, 0, 34, 4, 3, 40, 48, 16, 10, 25, 44, 15, 35, 18, 49, 7, 1, 46, 21, 36, 8, 28, 23, 38, 47, 37, 31, 42, 9, 14, 20, 39, 33, 12, 6, 29, 22, 19, 45, 11, 30, 2), 1118)
62: ((41, 32, 10, 22, 19, 45, 17, 48, 44, 11, 5, 12, 2, 13, 27, 0, 34, 24, 4, 7, 3, 1, 40, 46, 21, 36, 8, 15, 28, 23, 38, 47, 37, 31, 42, 9, 14, 20, 39, 35, 25, 49, 16, 33, 43, 6, 26, 29, 30, 18), 1116)
63: ((41, 32, 10, 22, 19, 45, 17, 48, 44, 11, 5, 12, 2, 13, 27, 0, 34, 24, 4, 7, 3, 1, 40, 46, 21, 36, 8, 15, 28, 23, 38, 47, 37, 31, 42, 9, 14, 20, 39, 35, 25, 49, 16, 33, 43, 6, 26, 29, 30, 18), 1116)
64: ((41, 32, 10, 22, 19, 45, 17, 48, 44, 11, 5, 12, 2, 13, 27, 0, 34, 24, 4, 7, 3, 1, 40, 46, 21, 36, 8, 15, 28, 23, 38, 47, 37, 31, 42, 9, 14, 20, 39, 35, 25, 49, 16, 33, 43, 6, 26, 29, 30, 18), 1116)
65: ((41, 32, 10, 22, 19, 45, 17, 48, 44, 11, 5, 12, 2, 13, 27, 0, 34, 24, 4, 7, 3, 1, 40, 46, 21, 36, 8, 15, 28, 23, 38, 47, 37, 31, 42, 9, 14, 20, 39, 35, 25, 49, 16, 33, 43, 6, 26, 29, 30, 18), 1116)
66: ((41, 32, 10, 22, 19, 45, 17, 48, 44, 11, 5, 12, 2, 13, 27, 0, 34, 24, 4, 7, 3, 1, 40, 46, 21, 36, 8, 15, 28, 23, 38, 47, 37, 31, 42, 9, 14, 20, 39, 35, 25, 49, 16, 33, 43, 6, 26, 29, 30, 18), 1116)
67: ((41, 32, 10, 22, 19, 45, 17, 48, 44, 11, 5, 12, 2, 13, 27, 0, 34, 24, 4, 7, 3, 1, 40, 46, 21, 36, 8, 15, 28, 23, 38, 47, 37, 31, 42, 9, 14, 20, 39, 35, 25, 49, 16, 33, 43, 6, 26, 29, 30, 18), 1116)
68: ((41, 32, 10, 22, 19, 45, 17, 48, 44, 11, 5, 12, 2, 13, 27, 0, 34, 24, 4, 7, 3, 1, 40, 46, 21, 36, 8, 15, 28, 23, 38, 47, 37, 31, 42, 9, 14, 20, 39, 35, 25, 49, 16, 33, 43, 6, 26, 29, 30, 18), 1116)
69: ((41, 32, 10, 22, 19, 45, 17, 48, 44, 11, 5, 12, 2, 13, 27, 0, 34, 24, 4, 7, 3, 1, 40, 46, 21, 36, 8, 15, 28, 23, 38, 47, 37, 31, 42, 9, 14, 20, 39, 35, 25, 49, 16, 33, 43, 6, 26, 29, 30, 18), 1116)
70: ((24, 43, 17, 41, 32, 5, 26, 27, 13, 0, 34, 4, 3, 40, 48, 16, 10, 25, 44, 15, 35, 18, 49, 7, 1, 46, 21, 36, 8, 28, 23, 38, 47, 37, 31, 42, 9, 14, 20, 39, 33, 12, 6, 29, 22, 19, 45, 11, 30, 2), 1118)
71: ((24, 43, 17, 41, 32, 5, 26, 27, 13, 0, 34, 4, 3, 40, 48, 16, 10, 25, 44, 15, 35, 18, 49, 7, 1, 46, 21, 36, 8, 28, 23, 38, 47, 37, 31, 42, 9, 14, 20, 39, 33, 12, 6, 29, 22, 19, 45, 11, 30, 2), 1118)
72: ((24, 43, 17, 41, 32, 5, 26, 27, 13, 0, 34, 4, 3, 40, 48, 16, 10, 25, 44, 15, 35, 18, 49, 7, 1, 46, 21, 36, 8, 28, 23, 38, 47, 37, 31, 42, 9, 14, 20, 39, 33, 12, 6, 29, 22, 19, 45, 11, 30, 2), 1118)
73: ((24, 43, 17, 41, 32, 5, 26, 27, 13, 0, 34, 4, 3, 40, 48, 16, 10, 25, 44, 15, 35, 18, 49, 7, 1, 46, 21, 36, 8, 28, 23, 38, 47, 37, 31, 42, 9, 14, 20, 39, 33, 12, 6, 29, 22, 19, 45, 11, 30, 2), 1118)
74: ((24, 43, 17, 41, 32, 5, 26, 27, 13, 0, 34, 4, 3, 40, 48, 16, 10, 25, 44, 15, 35, 18, 49, 7, 1, 46, 21, 36, 8, 28, 23, 38, 47, 37, 31, 42, 9, 14, 20, 39, 33, 12, 6, 29, 22, 19, 45, 11, 30, 2), 1118)
75: ((24, 43, 17, 41, 32, 5, 26, 27, 13, 0, 34, 4, 3, 40, 48, 16, 10, 25, 44, 15, 35, 18, 49, 7, 1, 46, 21, 36, 8, 28, 23, 38, 47, 37, 31, 42, 9, 14, 20, 39, 33, 12, 6, 29, 22, 19, 45, 11, 30, 2), 1118)
76: ((24, 43, 17, 41, 32, 5, 26, 27, 13, 0, 34, 4, 3, 40, 48, 16, 10, 25, 44, 15, 35, 18, 49, 7, 1, 46, 21, 36, 8, 28, 23, 38, 47, 37, 31, 42, 9, 14, 20, 39, 33, 12, 6, 29, 22, 19, 45, 11, 30, 2), 1118)
77: ((24, 43, 17, 41, 32, 5, 26, 27, 13, 0, 34, 4, 3, 40, 48, 16, 10, 25, 44, 15, 35, 18, 49, 7, 1, 46, 21, 36, 8, 28, 23, 38, 47, 37, 31, 42, 9, 14, 20, 39, 33, 12, 6, 29, 22, 19, 45, 11, 30, 2), 1118)
78: ((24, 43, 17, 41, 32, 5, 26, 27, 13, 0, 34, 4, 3, 40, 48, 16, 10, 25, 44, 15, 35, 18, 49, 7, 1, 46, 21, 36, 8, 28, 23, 38, 47, 37, 31, 42, 9, 14, 20, 39, 33, 12, 6, 29, 22, 19, 45, 11, 30, 2), 1118)
79: ((24, 43, 17, 41, 32, 5, 26, 27, 13, 0, 34, 4, 3, 40, 48, 16, 10, 25, 44, 15, 35, 18, 49, 7, 1, 46, 21, 36, 8, 28, 23, 38, 47, 37, 31, 42, 9, 14, 20, 39, 33, 12, 6, 29, 22, 19, 45, 11, 30, 2), 1118)
80: ((24, 43, 17, 41, 32, 5, 26, 27, 13, 0, 34, 4, 3, 40, 48, 16, 10, 25, 44, 15, 35, 18, 49, 7, 1, 46, 21, 36, 8, 28, 23, 38, 47, 37, 31, 42, 9, 14, 20, 39, 33, 12, 6, 29, 22, 19, 45, 11, 30, 2), 1118)
81: ((24, 43, 17, 41, 32, 5, 26, 27, 13, 0, 34, 4, 3, 40, 48, 16, 10, 25, 44, 15, 35, 18, 49, 7, 1, 46, 21, 36, 8, 28, 23, 38, 47, 37, 31, 42, 9, 14, 20, 39, 33, 12, 6, 29, 22, 19, 45, 11, 30, 2), 1118)
82: ((24, 43, 17, 41, 32, 5, 26, 27, 13, 0, 34, 4, 3, 40, 48, 16, 10, 25, 44, 15, 35, 18, 49, 7, 1, 46, 21, 36, 8, 28, 23, 38, 47, 37, 31, 42, 9, 14, 20, 39, 33, 12, 6, 29, 22, 19, 45, 11, 30, 2), 1118)
83: ((24, 43, 17, 41, 32, 5, 26, 27, 13, 0, 34, 4, 3, 40, 48, 16, 10, 25, 44, 15, 35, 18, 49, 7, 1, 46, 21, 36, 8, 28, 23, 38, 47, 37, 31, 42, 9, 14, 20, 39, 33, 12, 6, 29, 22, 19, 45, 11, 30, 2), 1118)
84: ((24, 43, 17, 41, 32, 5, 26, 27, 13, 0, 34, 4, 3, 40, 48, 16, 10, 25, 44, 15, 35, 18, 49, 7, 1, 46, 21, 36, 8, 28, 23, 38, 47, 37, 31, 42, 9, 14, 20, 39, 33, 12, 6, 29, 22, 19, 45, 11, 30, 2), 1118)
85: ((24, 43, 17, 41, 32, 5, 26, 27, 13, 0, 34, 4, 3, 40, 48, 16, 10, 25, 44, 15, 35, 18, 49, 7, 1, 46, 21, 36, 8, 28, 23, 38, 47, 37, 31, 42, 9, 14, 20, 39, 33, 12, 6, 29, 22, 19, 45, 11, 30, 2), 1118)
86: ((24, 43, 17, 41, 32, 5, 26, 27, 13, 0, 34, 4, 3, 40, 48, 16, 10, 25, 44, 15, 35, 18, 49, 7, 1, 46, 21, 36, 8, 28, 23, 38, 47, 37, 31, 42, 9, 14, 20, 39, 33, 12, 6, 29, 22, 19, 45, 11, 30, 2), 1118)
87: ((17, 41, 32, 5, 26, 27, 13, 0, 34, 4, 7, 3, 1, 40, 48, 10, 25, 44, 12, 15, 46, 18, 11, 24, 21, 36, 8, 28, 23, 38, 47, 37, 31, 42, 9, 14, 20, 39, 6, 29, 22, 49, 16, 33, 19, 2, 35, 30, 45, 43), 1117)
88: ((17, 41, 32, 5, 26, 27, 13, 0, 34, 4, 7, 3, 1, 40, 48, 10, 25, 44, 12, 15, 46, 18, 11, 24, 21, 36, 8, 28, 23, 38, 47, 37, 31, 42, 9, 14, 20, 39, 6, 29, 22, 49, 16, 33, 19, 2, 35, 30, 45, 43), 1117)
89: ((17, 41, 32, 5, 26, 27, 13, 0, 34, 4, 7, 3, 1, 40, 48, 10, 25, 44, 12, 15, 46, 18, 11, 24, 21, 36, 8, 28, 23, 38, 47, 37, 31, 42, 9, 14, 20, 39, 6, 29, 22, 49, 16, 33, 19, 2, 35, 30, 45, 43), 1117)
90: ((24, 43, 17, 41, 32, 5, 26, 27, 13, 0, 34, 4, 3, 40, 48, 16, 10, 25, 44, 15, 35, 18, 49, 7, 1, 46, 21, 36, 8, 28, 23, 38, 47, 37, 31, 42, 9, 14, 20, 39, 33, 12, 6, 29, 22, 19, 45, 11, 30, 2), 1118)
91: ((24, 43, 17, 41, 32, 5, 26, 27, 13, 0, 34, 4, 3, 40, 48, 16, 10, 25, 44, 15, 35, 18, 49, 7, 1, 46, 21, 36, 8, 28, 23, 38, 47, 37, 31, 42, 9, 14, 20, 39, 33, 12, 6, 29, 22, 19, 45, 11, 30, 2), 1118)
92: ((17, 41, 32, 26, 27, 5, 19, 45, 13, 0, 34, 4, 3, 40, 48, 10, 25, 44, 15, 7, 1, 21, 36, 8, 28, 23, 46, 49, 12, 38, 47, 37, 31, 42, 9, 14, 20, 39, 33, 35, 18, 16, 6, 29, 22, 11, 30, 2, 24, 43), 1116)
93: ((17, 41, 32, 26, 27, 5, 19, 45, 13, 0, 34, 4, 3, 40, 48, 10, 25, 44, 15, 7, 1, 21, 36, 8, 28, 23, 46, 49, 12, 38, 47, 37, 31, 42, 9, 14, 20, 39, 33, 35, 18, 16, 6, 29, 22, 11, 30, 2, 24, 43), 1116)
94: ((17, 41, 32, 26, 27, 5, 19, 45, 13, 0, 34, 4, 3, 40, 48, 10, 25, 44, 15, 7, 1, 21, 36, 8, 28, 23, 46, 49, 12, 38, 47, 37, 31, 42, 9, 14, 20, 39, 33, 35, 18, 16, 6, 29, 22, 11, 30, 2, 24, 43), 1116)
95: ((17, 41, 32, 26, 27, 5, 19, 45, 13, 0, 34, 4, 3, 40, 48, 10, 25, 44, 15, 7, 1, 21, 36, 8, 28, 23, 46, 49, 12, 38, 47, 37, 31, 42, 9, 14, 20, 39, 33, 35, 18, 16, 6, 29, 22, 11, 30, 2, 24, 43), 1116)
Best: ((41, 32, 10, 22, 19, 45, 17, 48, 44, 11, 5, 12, 2, 13, 27, 0, 34, 24, 4, 7, 3, 1, 40, 46, 21, 36, 8, 15, 28, 23, 38, 47, 37, 31, 42, 9, 14, 20, 39, 35, 25, 49, 16, 33, 43, 6, 26, 29, 30, 18), 1116)
Runtime: 207.6763703 s